38
6
0 7 10 11 12 13 14 15 16 17 19 20 23 24 27 29 30 31 32 34 35 36 37
1 6 13 14 17 18 21 22 23 24 25 28 29 32 33 34 35
2 7 10 12 14 19 24 25 32 33 35 36
3 14 15 19 20 22 23 26 29 30 31 32 33 34
4 6 7 8 9 11 12 16 17 18 19 20 24 25 26 36
5 33
